Mg_water_system
1.0000000000000000
   19.2600000000000016    0.0000000000000000    0.0000000000000000
   -9.6298588792008015   16.6800771597938819    0.0000000000000000
   0.0000000000000000    0.0000000000000000   53.4129999999999967
Mg H O
216 288 144
Cartesian
  0.0889823100  -0.4287583800   6.2089308000
  0.0035643200   1.7959983000   9.1015064000
  3.1038244000  -0.2248591200   6.7154180000
  6.3895792000  -0.4055390300   6.5757336000
  2.9787038000   1.6424585000   9.3701805000
  6.2276449000   1.6661083000   9.2166959000
 -1.6461195000   2.5406190000   6.3422427000
 -3.3267305000   5.2410284000   6.3834812000
 -1.8890410000   4.3649126000   9.2635140000
 -3.1765201000   7.1807584000   9.5660692000
  1.5285222000   2.7612002000   6.3080938000
 -0.0673668200   5.4444355000   6.7208102000
  4.6418705000   2.4044484000   6.5450121000
  3.0381378000   5.3463722000   6.2531940000
  1.3544204000   4.6282337000   9.3943668000
 -0.1871260400   7.4126483000   9.4071220000
  4.4743195000   4.3746787000   9.3113300000
  3.0563543000   7.0854692000   9.4992188000
  0.1040185500  -0.2535051200  11.8792840000
 -0.1589006100  -0.3803004200  17.0564600000
 -0.2642942100   1.3974236000  14.3192240000
 -0.0209400100   1.2467910000  20.0590540000
  3.3178396000  -0.4268409300  12.0164120000
  3.1881345000  -0.4811361600  17.0303990000
  6.2844442000  -0.3473654000  11.6738550000
  6.3817915000  -0.6969322400  17.1827650000
  3.2195195000   1.3918123000  14.5678180000
  3.0411212000   1.1658496000  19.8964830000
  6.2357819000   1.2568452000  14.5085440000
  6.2917983000   1.4546286000  19.7214600000
 -1.4573893000   2.4614161000  11.6497780000
 -1.6717442000   2.2058641000  17.0595880000
 -3.3608855000   5.2064062000  11.9858720000
 -3.5294679000   5.1761264000  17.1894910000
 -1.9702828000   4.1200410000  14.4309390000
 -1.6110550000   3.9465670000  20.0465400000
 -3.4200569000   7.0634880000  14.5499700000
 -3.5342425000   6.4264343000  20.2602060000
  1.6460638000   2.4638475000  12.0969510000
  1.4321865000   2.2407832000  17.2110770000
 -0.2443950300   5.3241879000  12.0096670000
 -0.1780480900   5.0948272000  17.1509880000
  4.6962726000   2.4678093000  11.8684670000
  4.4244226000   2.1664533000  17.2984420000
  3.0288794000   5.0111504000  12.0304770000
  3.0618935000   5.1177701000  17.2341250000
  1.4391611000   4.0978303000  14.5554980000
  1.8066110000   3.9996015000  20.4796790000
 -0.2652242300   7.0740109000  14.7853500000
 -0.1406092700   6.5472836000  20.3343590000
  4.7327791000   4.1959020000  14.7469440000
  4.8564813000   3.9299160000  19.8902620000
  3.1159731000   6.8860179000  14.7205880000
  3.5182654000   6.6088527000  20.2524200000
  9.5575788000  -0.0926286400   6.2455067000
  9.4346307000   1.5133501000   9.1664255000
 12.7129750000  -0.1819231900   6.5296007000
 16.0361260000  -0.3505534400   6.7885105000
 12.6358240000   1.6573610000   9.4925527000
 15.7640920000   1.4698935000   9.4726667000
  7.8230970000   2.5763672000   6.3564627000
  6.2909076000   5.3283718000   6.6189156000
  7.8301220000   4.3435901000   9.4264202000
  6.0945489000   6.9608875000   9.4493484000
 11.2057470000   2.7206454000   6.3675433000
  9.6952240000   5.2621879000   6.2754495000
 14.5214330000   2.5493150000   6.9146988000
 12.8616750000   5.2148516000   6.6987267000
 11.0414800000   4.5764376000   9.0702514000
  9.4528193000   7.1771426000   9.3459185000
 14.1793590000   4.5591626000   9.5761535000
 12.5373650000   7.2157449000   9.3550819000
  9.4140741000  -0.4914039500  11.8150360000
  9.4409836000  -0.6441342000  17.2883290000
  9.5278348000   1.5665735000  14.3123070000
  9.6435883000   1.1020905000  20.4108220000
 12.5258780000  -0.2322334600  12.0692770000
 12.8375290000  -0.7356364800  17.1401010000
 15.5851360000  -0.2380807000  12.0836200000
 15.9017640000  -0.5632015200  17.2571700000
 12.7387660000   1.4062601000  14.7694480000
 12.6885560000   1.3678606000  20.0481500000
 15.9746110000   1.3662838000  14.4079180000
 15.8392250000   1.3489541000  20.4844600000
  7.9560620000   2.6718366000  11.8615820000
  8.0102264000   2.1915379000  17.0552920000
  6.3487790000   5.1911644000  12.0568420000
  6.2341835000   4.8298532000  17.3340770000
  7.8141950000   4.1410330000  14.7767850000
  8.1422020000   4.0744342000  20.2665760000
  6.3611373000   7.0486726000  14.5888380000
  6.8204785000   6.8125982000  20.5978070000
 11.0194740000   2.5136638000  11.8028810000
 10.9376130000   2.1047135000  17.2038630000
  9.3948252000   5.3479353000  11.8281980000
  9.4024022000   5.1476901000  17.1699640000
 14.1510240000   2.5589283000  12.1107150000
 14.4020710000   2.0976462000  17.3236740000
 12.5938560000   5.1862234000  12.0968430000
 12.4260990000   4.9627035000  17.1298160000
 10.9255030000   4.2432062000  14.3807010000
 11.0600180000   3.7327370000  19.7009460000
  9.4032325000   6.8216043000  14.5110430000
  9.6285837000   6.7441016000  19.7934070000
 14.3140250000   4.1510735000  14.5428240000
 14.0391600000   4.0816013000  19.6484130000
 12.5899130000   6.9946292000  14.8040070000
 12.4503890000   6.6822941000  20.4630530000
 -5.1036515000   7.8147273000   6.5536547000
 -5.1316246000   9.9826329000   9.2956554000
 -1.8369817000   8.0536516000   6.5606103000
  1.2464558000   8.1729488000   6.2373407000
 -1.7680155000  10.1385130000   9.5290221000
  1.3833148000  10.0441610000   9.4714351000
 -6.6267388000  10.9272190000   6.4759475000
 -8.0284062000  13.5745710000   6.6215959000
 -6.6010582000  12.6517180000   9.3670281000
 -8.1373656000  15.4467810000   9.2897609000
 -3.3522415000  10.6557350000   6.6825227000
 -4.8035793000  13.5786720000   6.2707414000
 -0.1821648800  10.9046940000   6.3867916000
 -1.5903313000  13.6516720000   6.3367740000
 -3.4495086000  12.7393770000   9.1497381000
 -4.8604822000  15.3868690000   9.1622681000
 -0.1576031200  12.7695280000   9.4657982000
 -1.6466162000  15.6819050000   9.1097466000
 -5.1298852000   7.9999039000  11.8901130000
 -5.0218973000   7.7899704000  17.3263430000
 -4.9856147000   9.8169292000  14.6364020000
 -4.9181662000   9.3852002000  20.1596990000
 -1.9018887000   8.0129224000  12.1324040000
 -1.9790118000   7.7210920000  17.4461220000
  1.3595199000   7.9830959000  12.1446780000
  1.7131003000   7.7676735000  17.5554630000
 -1.8649395000   9.9333416000  14.6527790000
 -1.7241957000   9.2849490000  20.2643720000
  1.1781666000   9.6930816000  14.7058330000
  1.3590444000   9.4589382000  20.1344070000
 -6.5124004000  10.8436100000  12.1517650000
 -6.4943850000  10.6399760000  17.2511620000
 -8.1051793000  13.4954110000  11.8359770000
 -7.7894960000  13.4324930000  17.0095950000
 -6.4844768000  12.6551770000  14.4394010000
 -6.7073882000  12.5066280000  19.7082150000
 -8.1103600000  15.2405360000  14.1920660000
 -8.1898940000  15.1051740000  19.9718800000
 -3.4421408000  10.6755080000  11.9724360000
 -3.3342156000  10.6305510000  17.3684180000
 -4.8201374000  13.7824460000  11.8348600000
 -4.8306130000  13.3670580000  17.0970750000
 -0.2298740300  10.6178280000  11.8737190000
 -0.2300417400  10.2674930000  17.5237400000
 -1.6744381000  13.5068080000  11.9731290000
 -1.6160823000  13.2417980000  17.0302000000
 -3.4388396000  12.7142960000  14.5523100000
 -3.5546644000  12.1360060000  20.3601100000
 -4.7113909000  15.3626180000  14.5140320000
 -4.8257393000  15.1332690000  19.8323350000
 -0.1594378600  12.6368640000  14.2783010000
  0.0059945400  12.0769250000  20.0589200000
 -1.5824002000  15.4038980000  14.4160660000
 -1.6704408000  14.9540760000  19.8240380000
  4.7546969000   8.0862173000   6.6711739000
  4.7270731000   9.8303616000   9.3297091000
  8.0419851000   8.0716131000   6.2478483000
 11.0278990000   7.9952859000   6.3555147000
  8.0076606000   9.9807819000   9.3333729000
 10.9682570000   9.8315135000   9.2470070000
  3.0539309000  10.6874930000   6.5952895000
  1.5336523000  13.4547950000   6.7619552000
  3.0527022000  12.5232200000   9.1965969000
  1.6391216000  15.4471110000   9.3475393000
  6.4339317000  10.9353490000   6.6683028000
  4.7277553000  13.7021150000   6.3940746000
  9.4411894000  10.8308580000   6.5207675000
  7.9892620000  13.6270490000   6.4126285000
  6.3061882000  12.5540320000   9.4354824000
  4.7627803000  15.3201010000   9.3613815000
  9.4850269000  12.7076810000   9.2122994000
  7.9094184000  15.5480930000   9.3545997000
  4.5626393000   7.7523183000  12.1105300000
  4.7808457000   7.7543878000  17.3846730000
  4.5752768000   9.6487343000  14.6958230000
  4.7418009000   9.5089910000  20.1221180000
  7.9105710000   8.0856412000  11.7047750000
  7.9059655000   7.7794776000  17.2991310000
 10.9777330000   7.9829617000  12.0044410000
 10.9849580000   7.9982158000  17.2066060000
  7.8564978000   9.5691771000  14.7024190000
  7.9168826000   9.8353733000  19.9051250000
 10.9520610000   9.8789310000  14.6170100000
 11.1535920000   9.5056298000  20.4340660000
  3.1202313000  10.7246640000  12.1459880000
  3.0345798000  10.5550830000  17.5529390000
  1.4548770000  13.7067680000  11.8748400000
  1.4414820000  13.0353870000  17.2232540000
  2.9590035000  12.6173870000  14.5089250000
  2.8813741000  12.4572460000  20.3401950000
  1.2698306000  15.5350430000  14.6957850000
  1.4627429000  15.1487840000  20.9625140000
  6.2475062000  10.7109380000  12.0898320000
  6.2156640000  10.6487270000  17.5461670000
  4.8491412000  13.4112530000  11.8010640000
  4.7279907000  13.1586960000  17.1408010000
  9.4348125000  10.7198050000  11.9630050000
  9.5424274000  10.6289810000  17.1580560000
  7.8102328000  13.5282920000  11.8845400000
  7.9367695000  13.2703800000  16.9655330000
  6.0247037000  12.1412800000  14.6089820000
  6.0493554000  12.4547140000  20.6687460000
  4.5636484000  15.3290890000  14.6339410000
  4.5487519000  15.0500570000  20.1671380000
  9.6968496000  12.7341270000  14.4591830000
  9.4625707000  12.3188610000  20.1835010000
  7.6886350000  15.4160040000  14.7113410000
  7.7756960000  15.2127300000  20.0808710000
  1.1828882000   1.6152961000  24.1102480000
  2.6955223000   1.3930286000  24.0814750000
 11.3015860000   2.7482371000  22.1847880000
 12.0549530000   1.9218135000  23.2930200000
 -1.4658593000   4.5031299000  22.5375950000
 -1.2908478000   3.6267199000  23.9208200000
 -2.8404246000   8.2385487000  23.7651080000
 -2.3861071000   7.5270665000  22.3982690000
  1.0753847000   4.8875408000  23.0041430000
  1.7843876000   3.4085123000  23.1850000000
  2.0626812000   8.1391763000  23.8577830000
  3.2235176000   7.9251256000  22.7599940000
 -0.1359191700   1.2788144000  27.7320450000
  0.6685011100   0.8828003800  26.4766350000
 -3.2187502000   3.5131913000  26.8449840000
 -3.5406513000   4.9200760000  26.0270290000
  2.5854609000   6.2658859000  25.5350840000
  2.7622621000   4.7867721000  26.0923480000
  9.4307139000   1.8978120000  23.0810780000
  8.4007259000   1.2428388000  24.1286670000
 -3.6082715000   5.9761577000  23.8956220000
 -4.1046760000   4.5017133000  23.7936210000
 -0.5289061000   3.1611215000  26.0551340000
 -1.6856334000   4.1434857000  26.0400840000
  1.9085479000  -1.1950370000  26.4927460000
  1.9536402000  -0.5545142200  25.0314010000
 -3.4209317000   7.8275775000  27.5502750000
 -4.3387521000   6.9459334000  28.5087810000
  3.9710166000   2.5903337000  26.4800300000
  2.5361054000   2.5450629000  25.9537400000
  0.5873555300  -2.2181110000  24.5382160000
 -0.2897515200  -2.9251042000  23.4608010000
 -1.5682419000   6.5161470000  29.0252130000
 -2.1639051000   5.4008537000  28.0451200000
  3.0954364000   7.2129895000  28.8085610000
  4.4167724000   7.7785051000  27.9565810000
  4.8104005000  -0.8945462500  27.3763880000
  5.5161777000   0.4123185600  26.8004380000
 -3.5876284000   4.9032173000  30.3706790000
 -2.1309227000   4.7125735000  29.9848870000
  2.4162523000   5.5678840000  29.2929260000
  1.7949095000   6.6885932000  30.1318850000
  6.1412509000  -0.7160893500  30.5397280000
  5.1233542000   0.1677610000  29.6803180000
 -5.1783370000   6.8694848000  30.7421720000
 -5.8198613000   5.5304703000  30.0183790000
  0.1309661900   4.9165680000  28.5874540000
  0.9694575800   3.8911409000  27.7954650000
  9.0655272000   3.7136632000  29.9878160000
  9.3849900000   2.2638692000  30.5788670000
 -3.6170364000   9.2869611000  32.6003010000
 -2.9424272000   7.9442944000  33.0124160000
  4.2404159000  10.9157840000  30.1520580000
  3.7463819000   9.7677812000  29.0962100000
  3.1702533000   2.8380406000  30.0445000000
  2.9617437000   2.3965386000  28.6157510000
 -2.0392472000   4.6766046000  32.3524780000
 -0.8031342600   5.1032093000  33.2180440000
  5.3763688000  12.0553040000  32.2563080000
  6.2028755000  10.7339380000  32.0103580000
  4.7644428000   1.0577368000  32.0911740000
  4.4944671000   2.5996202000  32.4349700000
  1.0382196000   3.0344930000  33.9665530000
  0.3702082000   3.2583887000  32.5192140000
  5.7060095000  13.1177230000  34.1130510000
  4.3433512000  13.7622190000  33.3368100000
  6.7272272000   2.5332725000  33.3034810000
  7.4145439000   2.8494777000  31.9828490000
  0.3674071600  14.5848090000  37.7967130000
 -0.3654319000  13.2929550000  37.9397860000
  2.7233283000   3.9369201000  32.3746200000
  3.3055190000   4.7901748000  31.2356460000
 13.6463600000   0.4752564100  23.7503520000
 12.3276710000  -0.4127629800  23.6899240000
 16.0563180000   2.6979273000  22.7377830000
 15.8741960000   1.1466424000  23.0050270000
  9.9434056000   5.7715929000  23.6290220000
  9.4679866000   7.0938856000  22.8531730000
  5.9372328000   5.8680913000  23.1843370000
  7.5336804000   6.6440361000  23.2036980000
 12.0443480000   5.6138479000  23.0749320000
 13.6400040000   5.8274605000  23.1533930000
 11.8118940000   7.8944665000  25.1504880000
 12.6517300000   7.4257077000  23.8710160000
 12.8296750000   2.2087040000  26.9169340000
 12.9108330000   1.8195844000  25.4232400000
  7.4206210000   2.8122450000  23.7155670000
  6.0081731000   3.7154513000  23.7125880000
 10.1370970000   8.1262088000  26.6313010000
  9.3422350000   7.3998579000  25.3847640000
 16.3360540000   1.0538758000  27.0671010000
 14.9979200000   1.7525430000  26.5664370000
  3.9047204000   4.9935118000  24.4471550000
  3.9550581000   4.6571611000  22.9008980000
  9.4863013000   4.6513282000  25.6308180000
  7.9863177000   4.2177064000  25.9743890000
 15.8830670000  -0.3928485000  28.3198850000
 17.4657760000  -0.2359345100  28.2954110000
  6.4611075000   6.6103256000  27.1395210000
  5.2108908000   6.0280418000  26.3610270000
 11.5112300000   5.3058032000  25.3444930000
 11.1953340000   4.0042143000  24.4693260000
 12.0749080000  -1.7541959000  27.4264430000
 12.9099340000  -1.1564435000  26.1748350000
  5.8788183000   2.7236487000  27.0618010000
  6.0927279000   2.6653260000  25.4129270000
 12.2283480000   5.1374670000  27.8147250000
 13.4414670000   5.7288389000  27.0702680000
 12.3509650000   0.5673512600  28.1859280000
 10.9207710000   1.2097104000  27.9650550000
  9.1819657000   5.3539439000  31.0488040000
  8.8074486000   5.9252632000  29.5150180000
 11.9522570000   3.4596505000  29.3393580000
 11.1370830000   4.7695221000  29.7535110000
 14.4489270000   0.1940997000  29.8973570000
 14.0130590000  -1.2129166000  29.3374070000
  6.8671341000   2.7103697000  29.5586110000
  5.4341337000   2.2218703000  29.0860000000
  8.8355004000   2.0245105000  28.4295330000
  9.4813806000   2.5767399000  27.1455770000
 14.7317690000   2.2977291000  30.1258260000
 14.1930240000   2.3188327000  31.6196320000
  8.3136304000  11.1352910000  32.1881720000
  8.1319982000   9.6675448000  32.7458400000
 11.4884420000   3.4433137000  32.5306860000
 12.4027850000   4.4491287000  33.1627700000
 13.7880520000   2.5661813000  33.5230880000
 15.0830620000   3.3164003000  33.4908820000
  7.8267900000   7.3930964000  32.6122110000
  9.1767529000   7.8309077000  31.9387730000
 11.9807300000   8.8483545000  33.2055240000
 13.4240630000   8.2392373000  33.0030700000
 14.3616820000   0.0520959700  32.9905450000
 13.1592460000   0.2830319400  34.0037040000
  8.2007431000   4.5750863000  32.6265020000
  9.6013958000   5.0263411000  33.1610010000
 10.1854160000   9.7339741000  34.3933140000
 11.1316760000  10.7641960000  33.9933580000
 16.7513420000   4.2377530000  34.3818440000
 16.9438320000   2.6230940000  34.2522990000
  7.7607269000  11.7558180000  33.9383700000
  8.0591216000  12.4111740000  35.4012940000
  8.9656790000   2.3415647000  33.6799930000
 10.3641870000   2.5498909000  34.4232450000
 -4.0708706000   9.9683355000  24.6904390000
 -2.7058427000  10.5043650000  24.2813860000
  2.7127970000  11.0098390000  22.2828480000
  3.0472932000   9.9013646000  23.3434900000
 -7.0000652000  12.7660750000  22.4966550000
 -8.0307726000  12.9988100000  23.6254530000
-10.6527920000  16.9006070000  23.9896210000
 -9.8119854000  16.5666760000  22.6709690000
 -3.4535306000  13.0225120000  22.9322570000
 -3.8071353000  11.5457150000  23.0859210000
 -5.5039711000  16.1997040000  23.3816850000
 -6.7664442000  16.3820500000  22.5821340000
 -1.2526560000   7.9601658000  25.8399650000
 -1.3492278000   9.2344647000  26.6745050000
 -5.7243520000  11.5739480000  26.0450300000
 -6.0427399000  12.4135100000  24.7612360000
 -3.0468228000  16.8251550000  24.3324400000
 -3.1255071000  17.0076730000  22.7361060000
  0.0914748500   6.6367419000  24.3624690000
  0.0725370700   5.1775485000  24.7982070000
 -9.0764022000  11.3849680000  25.3838570000
 -9.6479499000   9.8877072000  25.4926020000
 -2.5249824000  13.1211700000  25.0591660000
 -3.8430726000  12.6145730000  25.5951520000
  0.5962839400   8.6713494000  27.5447200000
  2.3181844000   8.6237161000  27.3611840000
 -9.3937148000  11.2808410000  27.7812580000
 -9.7362742000  12.7694230000  27.7628510000
 -1.7341370000  11.7263320000  26.6716300000
 -0.2015060400  11.3113040000  27.2603370000
  0.8930809100   8.9072907000  25.4187480000
  0.2135397200   9.4968038000  24.1669440000
 -6.6287408000  10.8156910000  29.7099250000
 -7.5281199000  11.2264430000  28.4451820000
 -1.6953944000  17.6225230000  26.4566150000
 -1.2206646000  16.3742610000  25.6001720000
 -2.5817882000   7.6777524000  31.0081350000
 -2.2243053000   8.7588824000  29.8904730000
 -4.5720258000  12.9073770000  29.3128980000
 -4.9682094000  11.6800430000  28.4594560000
 -2.5531170000  13.7412310000  27.1940650000
 -2.6473487000  15.2846600000  27.5107880000
  0.6479157600   8.9998515000  30.8819340000
 -0.3483166000   7.8105839000  30.5811540000
 -6.2557453000  13.7361480000  27.0709980000
 -6.3270450000  14.5444070000  28.4013920000
 -3.0896781000  11.0345360000  29.2831510000
 -1.6357416000  10.8413490000  28.9235650000
  0.8205905300  11.7677800000  29.8035920000
  1.9859407000  10.9631430000  30.2694530000
 -6.9023559000  17.2265500000  30.2990750000
 -7.0751937000  15.6423150000  30.4504650000
 -2.5752849000  14.2348160000  29.4959330000
 -1.9614442000  13.9576340000  30.8586780000
 -3.3553975000  12.2284000000  32.4103220000
 -2.7439718000  11.3788120000  31.2430930000
 -5.9988085000  13.9151840000  31.2610410000
 -5.1436792000  14.8609040000  30.5352080000
 -1.0659687000  16.9089240000  32.0543560000
  0.5173932600  16.9234580000  31.7292840000
 -0.9648964000  13.9633510000  35.8150410000
 -1.7683783000  13.7611600000  34.4434250000
 -6.6972590000  13.7197170000  33.3718660000
 -6.8511503000  15.2179150000  33.4248800000
 -2.2401265000  16.2230100000  34.5276470000
 -3.2800893000  17.2494350000  33.8868140000
 -0.6788496900  13.0193860000  32.7503740000
  0.2414029700  12.2613450000  31.7317560000
 -9.3546693000  15.3514730000  32.9328280000
 -8.3354148000  16.3613590000  32.3412740000
 -4.4255519000  13.8545410000  33.5365490000
 -3.3389552000  14.8976950000  33.5714270000
  6.8470397000   9.3899974000  24.2267120000
  7.6119270000   9.9258857000  22.9475960000
 11.3565290000  10.6516740000  22.8757650000
 11.4613750000   9.1487925000  23.2290060000
  1.6143122000  12.5598010000  25.3605900000
  2.3107524000  12.0618440000  24.1011260000
  0.5223824600  15.5233350000  23.7221950000
  1.2136394000  14.1401040000  23.5646300000
  4.8070177000  12.0578180000  23.0099170000
  6.3930656000  11.5609380000  23.2169360000
  6.6159698000  17.2805430000  25.1225210000
  6.4206676000  15.7690350000  24.7792100000
  5.8457991000   7.8309126000  25.4906080000
  4.6157722000   8.4374826000  24.6096040000
 -0.6017327600  11.1629680000  22.8038850000
  0.1929960100  11.5294340000  24.0641280000
  5.1617687000  13.9341500000  24.5250500000
  5.9175802000  14.0074800000  25.8157500000
 14.2683110000   9.0009398000  26.8011020000
 13.3215680000   9.2692110000  25.5679200000
 -1.5600883000  13.9144300000  22.7572670000
 -2.5681471000  15.0540440000  23.4419730000
  5.0645265000  12.3594270000  27.1512590000
  4.2710123000  12.0938990000  28.4498860000
 11.7189490000   8.8116739000  28.2669820000
 11.9411050000   7.2491510000  27.7564910000
  0.9682736500  15.7077980000  26.3949970000
 -0.2258973500  14.7943760000  26.6863130000
  7.8364937000  10.8554760000  26.2166450000
  6.3177248000  10.2015810000  26.1223850000
  7.3310232000   7.6357288000  28.8111190000
  8.4824340000   7.1354229000  27.7583560000
  1.9034410000  12.2239140000  27.7148930000
  1.8405520000  10.8267310000  26.9052040000
  8.1772316000  14.5209380000  27.0648980000
  8.7880601000  13.5981110000  25.8376740000
  7.8635877000   9.8136217000  30.0567200000
  7.1521393000  10.1074470000  28.5931380000
  2.5632749000  13.9724030000  29.5195240000
  1.1102017000  14.3287750000  29.0017030000
  7.7637925000  14.2343050000  30.0823680000
  8.8107018000  15.4926630000  29.9970440000
 11.5088250000   7.9740982000  31.4088170000
 10.8196130000   7.9019671000  29.9788030000
 -0.1811018800  16.1392090000  29.9133490000
 -0.7335673800  15.3407860000  28.5589890000
  6.2115696000  12.6335070000  30.2307760000
  5.9060122000  13.2476460000  28.9215090000
 14.0186010000  10.8938000000  31.6955760000
 12.9196890000   9.8155410000  31.6209230000
  2.7980720000  16.8844220000  31.8184650000
  2.2837631000  17.2363870000  30.2935640000
  6.1603771000  14.9900400000  32.7121390000
  6.8279751000  15.9575600000  31.6453070000
  9.7171111000  11.0957390000  29.9870480000
 10.0999780000   9.8587403000  31.0160950000
  3.2350939000  13.9888080000  31.3942550000
  4.7209164000  13.7080310000  30.4138020000
  9.0408070000  17.7542540000  30.1159460000
 10.1766650000  16.8883240000  29.6211290000
  8.5514609000  13.5619870000  33.3378200000
  8.8252581000  14.1698610000  31.8991920000
  1.6867640000  13.3770800000  32.6852800000
  2.1094463000  14.8671470000  33.1514590000
  8.4118591000  18.3828940000  32.3570840000
  7.9900213000  19.4409460000  31.3237260000
 10.5574870000  12.8425490000  32.8504770000
 11.8129490000  12.0206700000  32.3015350000
  1.0566090000  17.0810840000  33.8867220000
  0.6339809500  15.5812810000  34.3766010000
  7.7383226000  16.9221100000  33.7074100000
  9.1844372000  17.2611210000  33.7048060000
  2.0249315000   2.1172564000  24.2195160000
 11.3914800000   2.6253512000  23.2069710000
 -1.9397565000   3.8747858000  23.1815570000
 -2.4970799000   7.3685756000  23.4012480000
  1.7632100000   4.2615538000  22.6247150000
  3.0433838000   8.2857525000  23.6517760000
  0.0118490200   1.5382608000  26.7972160000
 -3.0952391000   4.4856033000  26.7803180000
  3.2627772000   5.6060739000  25.7494790000
  8.4982751000   1.6823743000  23.2600770000
 -4.3720632000   5.3740934000  24.2057100000
 -0.8278152600   3.9823892000  25.5526730000
  1.3230744000  -0.8543867700  25.7483830000
 -4.3333534000   7.3898151000  27.6555680000
  3.0211574000   2.7952834000  26.7814910000
  0.1357441900  -3.0988083000  24.3456420000
 -1.4819586000   5.5794603000  28.7124560000
  3.4829587000   7.9554749000  28.1960780000
  5.5790520000  -0.2785006100  27.5540470000
 -2.8251231000   4.2310412000  30.4176380000
  2.6573572000   6.2129776000  29.9907430000
  5.2994857000  -0.2231399000  30.6222000000
 -5.0216692000   6.1494108000  30.1278070000
  1.0182193000   4.4310508000  28.5697240000
  8.6724727000   2.8373043000  30.1037730000
 -3.8392809000   8.3163696000  32.7090940000
  3.5988085000  10.7178930000  29.3948350000
  3.2396806000   2.0618574000  29.4671480000
 -1.7725717000   5.2113022000  33.1532890000
  5.4395826000  11.2572880000  31.6210600000
  4.6357100000   1.6987625000  32.8415880000
  0.9444231000   3.6617256000  33.2147890000
  5.3300421000  13.5810720000  33.2992530000
  7.4447736000   3.0662410000  32.9266080000
 -0.4738282700  14.1691380000  37.5450270000
  3.4361496000   3.9382502000  31.7238040000
 12.7451090000   0.3691393900  24.1405580000
 15.5255560000   1.8690666000  22.4728000000
  9.3595969000   6.5884760000  23.6710350000
  6.6274238000   6.5410516000  22.8309660000
 12.8059220000   6.1557485000  22.7468740000
 12.3051810000   8.2050750000  24.3718880000
 13.3001850000   2.4124052000  26.1056460000
  6.7691240000   3.3852982000  24.1869090000
  9.2707427000   8.1136208000  26.0845780000
 16.0111810000   1.8146953000  26.4687860000
  4.5747036000   4.7598300000  23.6630070000
  8.9047501000   4.2339801000  26.3392670000
 16.7273430000  -0.5736111300  27.7192840000
  6.1173585000   6.4150370000  26.2544430000
 10.9796070000   4.9817087000  24.5732560000
 12.5501020000  -0.9721859000  27.0666820000
  5.5130527000   2.3452215000  26.2360640000
 12.4667980000   5.4991013000  26.9513200000
 11.8091600000   1.3386505000  28.4581460000
  9.4415410000   5.3799655000  30.0317800000
 12.0439910000   4.4700229000  29.3583890000
 14.4922570000  -0.3833448600  29.1398530000
  6.1709369000   2.7845804000  28.8509570000
  9.2024374000   1.7658591000  27.5872260000
 14.3892180000   1.7083011000  30.8259450000
  7.7430065000  10.6168040000  32.8053990000
 11.4552330000   4.3405669000  32.8627440000
 14.1758580000   3.3033236000  32.9893370000
  8.3578686000   8.1438537000  32.2680100000
 12.6174220000   8.4853585000  32.4682600000
 13.4860820000   0.5278378300  33.1279590000
  8.8396957000   5.3538020000  32.6085550000
 11.0981970000   9.7621953000  34.1576440000
 16.3490930000   3.3328007000  34.6185080000
  7.6303621000  12.5622230000  34.5407340000
  9.6695482000   1.8631791000  34.2105010000
 -3.5096534000  10.0287200000  23.8683830000
  3.1423748000  10.8954660000  23.2185620000
 -7.3715686000  12.3342650000  23.2856230000
 -9.8007657000  17.0207010000  23.5519240000
 -4.0319891000  12.3206080000  22.4874700000
 -6.4501220000  16.3445180000  23.5193270000
 -1.5869625000   8.2812814000  26.6749070000
 -5.5635039000  12.4363240000  25.6266800000
 -3.3966112000  16.3844110000  23.4621420000
  0.6126917400   5.8235428000  24.3475790000
 -9.4122738000  10.7242230000  25.9895770000
 -2.8894298000  12.5609540000  25.7431650000
  1.4388406000   9.1167253000  27.1379630000
 -9.2011010000  12.0655980000  28.3157210000
 -1.0669785000  10.9481830000  26.9747530000
  0.5153617400   8.6049279000  24.5099280000
 -6.8029525000  10.6739700000  28.7173610000
 -1.8742574000  17.1174270000  25.6333850000
 -2.2463359000   7.7864608000  30.0618890000
 -4.2156224000  12.2192040000  28.6777720000
 -2.0761028000  14.4848500000  27.6308230000
  0.5328904000   8.0094173000  30.8915400000
 -6.3368864000  14.6789650000  27.4194800000
 -2.2676003000  10.5356860000  29.6324710000
  0.9844941900  10.9528380000  30.2932750000
 -7.4847410000  16.5065820000  30.6077480000
 -2.7555447000  14.3018390000  30.4435970000
 -3.4771284000  11.4209940000  31.8879590000
 -5.8373346000  14.1767840000  30.2876490000
 -0.3835442500  17.0952430000  31.4004200000
 -1.0520619000  14.2669170000  34.8601490000
 -6.1396242000  14.5022660000  33.2688710000
 -2.4905726000  16.7110920000  33.7151920000
 -0.2209384800  13.1082490000  31.8893180000
 -8.7842505000  16.2114650000  33.1742900000
 -3.3982802000  13.9291570000  33.5733440000
  7.4169959000  10.1464160000  23.9136280000
 11.0387130000   9.7927554000  22.5969000000
  1.5379998000  12.6560570000  24.3800000000
  1.0752023000  15.0111530000  23.1026030000
  5.7432872000  12.3325280000  22.9661810000
  6.7681472000  16.6465220000  24.4474920000
  5.3827733000   8.6653781000  25.1772870000
 -0.4689872100  10.8786780000  23.7304320000
  5.3332010000  14.5218890000  25.2614590000
 13.9506180000   9.6566267000  26.1644260000
 -2.0576615000  14.1315390000  23.5553860000
  4.7175592000  12.8735310000  27.9203580000
 11.2737730000   7.9609722000  28.0167250000
  0.1755722000  15.3259210000  25.9313410000
  6.9212837000  10.7661580000  26.6843380000
  7.7392934000   6.8317776000  28.3629180000
  1.6228718000  11.8009790000  26.8696940000
  8.4798131000  13.6121990000  26.7969550000
  7.1822725000   9.5103892000  29.3524550000
  1.8755810000  13.6621800000  28.8488940000
  8.5759371000  14.6903960000  30.4699250000
 10.6682270000   8.2567363000  30.9148240000
  0.1343822900  15.7309110000  28.9695280000
  6.2670149000  13.4980950000  29.7801800000
 13.0882280000  10.7746320000  31.3185030000
  2.0368976000  16.8246220000  31.1541590000
  6.3824950000  15.9326550000  32.5134680000
  9.5581837000  10.7025580000  30.8911970000
  3.7806095000  14.0191160000  30.4956880000
  9.2506456000  17.0595080000  29.3973940000
  9.2933633000  13.7793600000  32.7376020000
  2.4006677000  13.9718960000  32.9527440000
  8.6611387000  18.7385630000  31.4832420000
 11.3583090000  12.2673150000  33.1220810000
  1.3584272000  16.2331490000  34.1997660000
  8.3108184000  17.7422090000  33.8574970000
